Traveling Salesman Problem/TSP_generados/Aleatorio1621103372_12.tsp
NAME: Aleatorio1621103372_12.tsp
COMMENT: Randomly generated scenario
TYPE: TSP
DIMENSION: 12
EDGE_WEIGHT_TYPE: ATT
NODE_COORD_SECTION
1 6.85 21.21
2 27.55 36.05
3 32.01 16.54
4 42.0 9.78
5 47.21 4.14
6 49.09 4.25
7 22.65 18.96
8 5.62 19.32
9 46.57 7.4
10 31.49 7.85
11 25.87 41.0
12 3.92 27.13
