Traveling Salesman Problem/TSP_generados/Aleatorio1621103372_12.opt.tour
NAME: Aleatorio1621103372_12.opt.tour
COMMENT: Optimal solution for Aleatorio1621103372_12 (130.5814650610044)
TYPE: TOUR
DIMENSION: 12
TOUR_SECTION
1 8 7 10 5 6 9 4 3 2 11 12
-1
EOF
